247 300 17 62 20 83 180 6 72 105 90 81 170 66 8 98 71 9 77 148 172 156 68 104 61 87 127 137 135 172 165 51 118 181 64 138 16 43 95 39 99 184 120 21 49 127 70 119 87 146 19 10 53 86 114 114 125 192 50 11 163 166 61 81 99 124 170 114 119 64 104 169 47 23 189 47 101 11 118 140 156 136 101 161 173 14 74 49 157 75 59 72 41 71 152 139 147 73 4 65 136 59 185 134 34 126 132 134 136 49 25 43 136 126 3 61 91 28 61 200 103 120 71 95 142 174 185 88 46 140 104 181 198 89 66 31 14 197 117 101 198 141 143 133 18 98 145 61 125 6 60 179 77 130 73 18 103 57 106 148 196 161 80 194 49 97 176 14 93 92 114 90 185 9 175 2 106 71 14 182 76 25 161 152 154 33 122 8 42 179 107 189 139 138 134 188 34 110 1 127 1 67 168 185 27 94 139 84 165 104 65 192 129 25 96 82 10 17 42 51 195 148 39 133 86 173 72 119 34 25 197 34 91 117 171 69 162 61 152 126 164 16 70 92 193 165 126 2 181 